unknown
(model
; cardinality of BoundSet is 2
(declare-sort BoundSet 0)
; rep: @uc_BoundSet_0
; rep: @uc_BoundSet_1
; cardinality of UnboundSet is 1
(declare-sort UnboundSet 0)
(declare-fun groundTerm_3 () UnboundSet)
(define-fun IsThin ((BOUND_VARIABLE_448 BoundSet)) Bool true)
(define-fun WasIn2008 ((BOUND_VARIABLE_448 BoundSet)) Bool true)
(define-fun IsThisYear ((BOUND_VARIABLE_448 BoundSet)) Bool false)
(define-fun IsAtLeastTwoMetersThick ((BOUND_VARIABLE_448 BoundSet)) Bool false)
)
sat
(model
; cardinality of BoundSet is 1
(declare-sort BoundSet 0)
; rep: @uc_BoundSet_0
; cardinality of UnboundSet is 1
(declare-sort UnboundSet 0)
(declare-fun groundTerm_9 () UnboundSet)
(define-fun IsThin ((BOUND_VARIABLE_507 BoundSet)) Bool true)
(define-fun WasIn2008 ((BOUND_VARIABLE_507 BoundSet)) Bool true)
(define-fun IsThisYear ((BOUND_VARIABLE_507 BoundSet)) Bool true)
(define-fun IsAtLeastTwoMetersThick ((BOUND_VARIABLE_507 BoundSet)) Bool false)
)
